
List of user-set options:

                                    Name   Value                used
                           compl_inf_tol = 1                     yes
                         constr_viol_tol = 1                     yes
                            dual_inf_tol = 1000                  yes
                           linear_solver = ma97                  yes
                              ma86_small = 1e-30                  no
                                  ma86_u = 0.0001                 no
                              ma97_order = best                  yes
                              ma97_small = 1e-30                 yes
                            ma97_switch1 = at_start              yes
                            ma97_switch2 = od_hd_reuse           yes
                                  ma97_u = 1e-06                 yes
                               ma97_umax = 0.5                   yes
                                max_iter = 1000                  yes
                    max_refinement_steps = 20                    yes
                    min_refinement_steps = 5                     yes
                                 mu_init = 1e-06                 yes
           mu_superlinear_decrease_power = 1.25                  yes
                   nlp_scaling_min_value = 1e-08                 yes
                        option_file_name = Preset_Case:_2_NCP.opt  yes
                             output_file = ./tmp/Preset_Case:_2_NCP.output  yes
                      print_user_options = yes                   yes
        required_infeasibility_reduction = 1                      no
                                     tol = 1e-08                 yes
                   warm_start_bound_frac = 1e-20                 yes
                   warm_start_bound_push = 1e-20                 yes
                   warm_start_init_point = yes                   yes
              warm_start_mult_bound_push = 1e-20                 yes
                warm_start_mult_init_max = 1e+40                 yes
             warm_start_slack_bound_frac = 1e-20                 yes
             warm_start_slack_bound_push = 1e-20                 yes

******************************************************************************
This program contains Ipopt, a library for large-scale nonlinear optimization.
 Ipopt is released as open source code under the Eclipse Public License (EPL).
         For more information visit http://projects.coin-or.org/Ipopt
******************************************************************************

This is Ipopt version 3.12.10, running with linear solver ma97.

Number of nonzeros in equality constraint Jacobian...:   117167
Number of nonzeros in inequality constraint Jacobian.:      213
Number of nonzeros in Lagrangian Hessian.............:    47513

Total number of variables............................:    29977
                     variables with only lower bounds:    11312
                variables with lower and upper bounds:    15135
                     variables with only upper bounds:        0
Total number of equality constraints.................:    29864
Total number of inequality constraints...............:       25
        inequality constraints with only lower bounds:        4
   inequality constraints with lower and upper bounds:        0
        inequality constraints with only upper bounds:       21

iter    objective    inf_pr   inf_du lg(mu)  ||d||  lg(rg) alpha_du alpha_pr  ls
   0 -1.6232938e-01 1.11e-01 2.00e+00  -6.0 0.00e+00    -  0.00e+00 0.00e+00   0
In iteration 0, 8 Slacks too small, adjusting variable bounds
   1 -1.6232938e-01 1.11e-01 1.46e+03  -6.0 1.06e+10    -  1.46e-13 1.89e-18h  1
   2 -1.6271956e-01 1.07e-01 3.45e+03  -6.0 4.68e+01    -  1.00e-02 2.43e-02f  1
   3 -1.6270985e-01 1.07e-01 3.51e+03  -6.0 4.25e+01    -  3.64e-02 5.61e-04h  1
   4 -1.6253105e-01 1.05e-01 3.66e+03  -6.0 1.30e+02    -  2.60e-01 2.17e-02h  2
   5 -1.6245799e-01 1.04e-01 3.63e+03  -6.0 5.64e+01    -  9.05e-03 8.96e-03h  5
   6 -1.6233961e-01 1.03e-01 3.66e+03  -6.0 8.94e+01    -  8.36e-02 9.59e-03h  5
   7 -1.6233518e-01 1.02e-01 3.74e+03  -6.0 6.39e+01    -  1.55e-01 1.10e-02h  5
   8 -1.6226840e-01 1.01e-01 3.71e+03  -6.0 7.97e+01    -  5.85e-02 1.46e-02h  5
   9 -1.6219681e-01 1.00e-01 3.70e+03  -6.0 7.27e+01    -  4.76e-02 7.50e-03h  6
iter    objective    inf_pr   inf_du lg(mu)  ||d||  lg(rg) alpha_du alpha_pr  ls
  10 -1.6213134e-01 9.92e-02 3.69e+03  -6.0 7.73e+01    -  5.69e-02 8.56e-03h  6
  11 -1.6206209e-01 9.82e-02 3.67e+03  -6.0 7.78e+01    -  4.64e-02 9.54e-03h  6
  12 -1.6202642e-01 9.72e-02 3.65e+03  -6.0 5.77e+01    -  5.40e-02 1.07e-02h  6
  13 -1.6195817e-01 9.61e-02 3.64e+03  -6.0 7.54e+01    -  9.99e-02 1.16e-02h  6
  14 -1.5915127e-01 6.20e+00 1.27e+04  -6.0 7.88e+01    -  8.46e-02 4.50e-01w  1
  15 -1.5593613e-01 5.48e+00 6.61e+03  -6.0 4.39e+01    -  3.68e-01 4.82e-01w  1
  16 -1.5539935e-01 4.83e+00 9.68e+03  -6.0 2.93e+01    -  5.06e-01 1.24e-01w  1
  17 -1.6187045e-01 9.47e-02 3.61e+03  -6.0 3.10e+01    -  8.46e-02 1.41e-02h  5
  18 -1.6181824e-01 9.40e-02 3.59e+03  -6.0 7.91e+01    -  6.63e-02 8.03e-03h  7
  19 -1.6176100e-01 9.31e-02 3.62e+03  -6.0 7.79e+01    -  3.09e-01 8.78e-03h  7
iter    objective    inf_pr   inf_du lg(mu)  ||d||  lg(rg) alpha_du alpha_pr  ls
  20 -1.6168852e-01 9.21e-02 3.58e+03  -6.0 7.34e+01    -  5.68e-02 1.11e-02h  7
  21 -1.6161727e-01 9.11e-02 3.56e+03  -6.0 7.28e+01    -  3.28e-01 1.08e-02h  7
  22 -1.6154986e-01 9.02e-02 3.53e+03  -6.0 7.33e+01    -  8.83e-02 9.52e-03h  7
  23 -1.6148335e-01 8.94e-02 3.49e+03  -6.0 7.35e+01    -  3.68e-01 9.25e-03h  7
  24 -1.6141793e-01 8.87e-02 3.46e+03  -6.0 7.70e+01    -  1.46e-01 8.36e-03h  7
  25 -1.6135568e-01 8.80e-02 3.41e+03  -6.0 7.77e+01    -  3.79e-01 7.78e-03h  7
  26 -1.6133976e-01 8.72e-02 3.37e+03  -6.0 4.21e+01  -4.0 9.25e-02 8.78e-03h  7
  27 -1.6054832e-01 1.37e+00 2.82e+03  -6.0 5.19e+01  -4.5 1.51e-01 1.71e-01w  1
  28 -1.5596630e-01 4.63e+00 4.29e+03  -6.0 7.20e+01    -  7.58e-05 4.41e-01w  1
  29 -1.5187136e-01 6.90e+00 1.66e+03  -6.0 4.58e+01    -  5.69e-01 6.79e-01w  1
iter    objective    inf_pr   inf_du lg(mu)  ||d||  lg(rg) alpha_du alpha_pr  ls
  30 -1.6131503e-01 8.67e-02 3.34e+03  -6.0 2.32e+01    -  1.51e-01 5.34e-03h  5
  31 -1.6122081e-01 8.61e-02 3.32e+03  -6.0 4.19e+01  -4.1 1.55e-01 7.41e-03h  7
  32 -1.6121305e-01 8.51e-02 3.28e+03  -6.0 3.25e+01  -3.6 1.94e-01 1.10e-02h  7
  33 -1.6119427e-01 8.47e-02 3.24e+03  -6.0 3.81e+01  -4.1 2.44e-01 4.94e-03h  8
  34 -1.6116329e-01 8.39e-02 3.21e+03  -6.0 3.18e+01  -3.7 3.38e-02 9.67e-03h  7
  35 -1.6111407e-01 8.27e-02 3.18e+03  -6.0 2.58e+01  -3.3 3.20e-01 1.41e-02h  6
  36 -1.6108513e-01 8.25e-02 3.15e+03  -6.0 3.33e+01  -3.7 7.07e-02 9.72e-03h  7
  37 -1.6105870e-01 8.32e-02 3.13e+03  -6.0 2.64e+01  -3.3 2.27e-01 7.42e-03h  7
  38 -1.6104405e-01 8.38e-02 3.10e+03  -6.0 3.51e+01  -3.8 1.32e-01 5.16e-03h  8
  39 -1.6101537e-01 8.47e-02 3.07e+03  -6.0 2.71e+01  -3.4 4.44e-01 7.91e-03h  7
iter    objective    inf_pr   inf_du lg(mu)  ||d||  lg(rg) alpha_du alpha_pr  ls
  40 -1.5947130e-01 2.02e+01 5.20e+03  -6.0 3.88e+01  -3.8 1.53e-01 6.49e-01w  1
  41 -1.5830240e-01 1.52e+01 4.11e+03  -6.0 3.56e+01  -4.3 1.89e-01 2.10e-01w  1
  42 -1.5804314e-01 1.44e+01 3.89e+03  -6.0 1.09e+01  -3.9 7.86e-01 5.29e-02w  1
  43 -1.6100331e-01 8.55e-02 3.03e+03  -6.0 2.88e+01  -4.4 1.53e-01 5.07e-03h  7
  44 -1.6096161e-01 8.67e-02 3.01e+03  -6.0 2.30e+01  -3.0 3.49e-01 1.08e-02h  6
  45 -1.6094454e-01 8.70e-02 2.99e+03  -6.0 3.04e+01  -3.5 1.29e-01 5.07e-03h  8
  46 -1.6089820e-01 8.86e-02 2.96e+03  -6.0 2.37e+01  -3.1 6.81e-01 1.13e-02h  6
  47 -1.6088393e-01 8.92e-02 2.93e+03  -6.0 3.14e+01  -3.6 1.44e-01 5.90e-03h  7
  48 -1.6083199e-01 9.12e-02 2.88e+03  -6.0 2.47e+01  -3.1 7.63e-01 1.20e-02h  6
  49 -1.6082273e-01 9.16e-02 2.85e+03  -6.0 3.31e+01  -3.6 1.83e-01 4.90e-03h  7
iter    objective    inf_pr   inf_du lg(mu)  ||d||  lg(rg) alpha_du alpha_pr  ls
  50 -1.6079467e-01 9.20e-02 2.82e+03  -6.0 2.56e+01  -3.2 8.94e-01 6.33e-03h  7
  51 -1.6078497e-01 9.22e-02 2.78e+03  -6.0 4.01e+01  -3.7 2.11e-01 3.21e-03h  8
  52 -1.6075398e-01 9.27e-02 2.77e+03  -6.0 2.70e+01  -3.2 9.39e-01 6.79e-03h  7
  53 -1.5903992e-01 1.36e+01 1.78e+03  -6.0 5.02e+01  -3.7 2.20e-01 3.87e-01w  1
  54 -1.5797982e-01 9.68e+00 1.25e+03  -6.0 1.85e+01  -3.3 6.77e-01 2.48e-01w  1
  55 -1.5738366e-01 8.64e+00 9.58e+02  -6.0 1.73e+01  -3.8 8.98e-01 1.09e-01w  1
  56 -1.6074059e-01 9.32e-02 2.72e+03  -6.0 1.16e+01  -3.3 2.20e-01 3.02e-03h  7
  57 -1.6069713e-01 9.39e-02 2.75e+03  -6.0 2.21e+01  -2.9 6.43e-01 9.42e-03h  6
  58 -1.6067892e-01 9.41e-02 2.72e+03  -6.0 3.22e+01  -3.4 2.07e-01 4.02e-03h  8
  59 -1.6062847e-01 9.52e-02 2.71e+03  -6.0 2.36e+01  -3.0 1.00e+00 1.02e-02h  6
iter    objective    inf_pr   inf_du lg(mu)  ||d||  lg(rg) alpha_du alpha_pr  ls
  60 -1.6061243e-01 9.54e-02 2.67e+03  -6.0 3.59e+01  -3.4 2.22e-01 3.48e-03h  8
  61 -1.6055448e-01 9.72e-02 2.64e+03  -6.0 2.52e+01  -3.0 1.00e+00 1.12e-02h  6
  62 -1.6053555e-01 9.75e-02 2.59e+03  -6.0 4.11e+01  -3.5 2.66e-01 3.57e-03h  8
  63 -1.6050272e-01 9.79e-02 2.58e+03  -6.0 2.67e+01  -3.1 1.00e+00 6.14e-03h  7
  64 -1.6048309e-01 9.84e-02 2.52e+03  -6.0 4.68e+01  -3.5 3.03e-01 3.28e-03h  8
  65 -1.6044481e-01 9.91e-02 2.53e+03  -6.0 2.83e+01  -3.1 8.15e-01 6.96e-03h  7
  66 -1.5390754e-01 9.03e+00 1.81e+03  -6.0 5.08e+01  -3.6 1.42e-01 3.04e-01w  1
  67 -1.5328517e-01 5.92e+00 4.19e+03  -6.0 1.70e+01  -3.2 1.00e+00 5.18e-01w  1
  68 -1.5119747e-01 2.61e+00 2.32e+03  -6.0 1.80e+01  -3.6 4.68e-01 5.68e-01w  1
  69 -1.6039374e-01 9.93e-02 2.50e+03  -6.0 2.59e+01  -4.1 1.42e-01 2.37e-03h  7
iter    objective    inf_pr   inf_du lg(mu)  ||d||  lg(rg) alpha_du alpha_pr  ls
  70 -1.6038319e-01 9.95e-02 2.42e+03  -6.0 6.12e+01  -3.7 3.20e-01 1.58e-03h  8
  71 -1.6033345e-01 1.01e-01 2.42e+03  -6.0 3.05e+01  -3.3 3.11e-01 9.15e-03h  7
  72 -1.6030341e-01 1.02e-01 2.35e+03  -6.0 6.81e+01  -3.7 3.05e-01 2.22e-03h  7
  73 -1.6027714e-01 1.02e-01 2.42e+03  -6.0 2.86e+01  -3.3 6.77e-01 5.84e-03h  6
  74 -1.6027257e-01 1.02e-01 2.41e+03  -6.0 3.99e+02  -3.8 3.36e-03 1.40e-04h  8
  75 -1.6024212e-01 1.03e-01 2.41e+03  -6.0 3.09e+01  -3.4 6.39e-01 5.54e-03h  8
  76 -1.6024131e-01 1.04e-01 2.45e+03  -6.0 2.21e+01  -2.9 8.43e-01 1.11e-02h  1
  77 -1.6021408e-01 1.04e-01 2.41e+03  -6.0 3.56e+01  -3.4 2.68e-01 4.81e-03h  8
  78 -1.5819700e-01 1.06e-01 2.38e+03  -6.0 2.84e+01  -3.0 2.65e-02 1.16e-02h  3
  79 -1.5817404e-01 1.06e-01 2.26e+03  -6.0 3.76e+01  -3.5 1.00e+00 4.39e-03h  8
iter    objective    inf_pr   inf_du lg(mu)  ||d||  lg(rg) alpha_du alpha_pr  ls
  80 -1.5818612e-01 1.07e-01 2.31e+03  -6.0 2.32e+01  -3.0 6.88e-01 8.92e-03h  6
  81 -1.5816728e-01 1.07e-01 2.20e+03  -6.0 4.09e+01  -3.5 1.00e+00 3.30e-03h  8
  82 -1.5820620e-01 1.10e-01 2.22e+03  -6.0 2.35e+01  -3.1 3.98e-01 1.45e-02h  5
  83 -1.5818984e-01 1.10e-01 2.14e+03  -6.0 4.21e+01  -3.6 1.00e+00 2.88e-03h  8
  84 -1.5823955e-01 1.12e-01 2.17e+03  -6.0 2.29e+01  -3.1 4.26e-01 1.14e-02h  5
  85 -1.5820841e-01 1.13e-01 2.10e+03  -6.0 4.30e+01  -3.6 8.90e-01 5.18e-03h  7
  86 -1.5831324e-01 1.18e-01 2.12e+03  -6.0 2.24e+01  -3.2 4.82e-01 1.99e-02h  4
  87 -1.5627322e-01 6.37e+00 1.48e+03  -6.0 4.46e+01  -3.7 1.00e+00 2.77e-01w  1
  88 -1.5716021e-01 4.95e+00 1.16e+03  -6.0 1.34e+01  -3.3 4.91e-01 2.25e-01w  1
  89 -1.5479401e-01 3.79e+00 1.91e+03  -6.0 1.64e+01  -3.7 1.00e+00 5.08e-01w  1
iter    objective    inf_pr   inf_du lg(mu)  ||d||  lg(rg) alpha_du alpha_pr  ls
  90 -1.5828137e-01 1.19e-01 2.01e+03  -6.0 1.66e+01  -4.2 1.00e+00 4.32e-03h  6
  91 -1.5886254e-01 1.26e-01 1.99e+03  -6.0 1.66e+01  -2.9 2.45e-01 2.96e-02h  2
  92 -1.5882542e-01 1.27e-01 2.01e+03  -6.0 2.25e+01  -3.4 6.40e-01 1.26e-02h  6
  93 -1.5889935e-01 1.30e-01 2.00e+03  -6.0 1.80e+01  -2.9 5.19e-01 2.00e-02h  3
  94 -1.5883521e-01 1.31e-01 1.96e+03  -6.0 2.66e+01  -3.4 3.19e-01 1.01e-02h  7
  95 -1.5880824e-01 1.34e-01 1.93e+03  -6.0 1.92e+01  -3.0 1.00e+00 1.79e-02h  4
  96 -1.5877414e-01 1.34e-01 1.90e+03  -6.0 3.17e+01  -3.5 2.50e-01 4.41e-03h  8
  97 -1.5871320e-01 1.37e-01 1.87e+03  -6.0 2.10e+01  -3.0 1.00e+00 1.68e-02h  5
  98 -1.5866640e-01 1.38e-01 1.83e+03  -6.0 3.70e+01  -3.5 2.23e-01 5.57e-03h  7
  99 -1.5862747e-01 1.38e-01 1.82e+03  -6.0 2.25e+01  -3.1 1.00e+00 9.67e-03h  6
iter    objective    inf_pr   inf_du lg(mu)  ||d||  lg(rg) alpha_du alpha_pr  ls
 100 -1.5627994e-01 5.19e+00 1.35e+03  -6.0 4.14e+01  -3.6 2.09e-01 2.64e-01w  1
 101 -1.5623615e-01 5.10e+00 1.26e+03  -6.0 1.77e+01  -3.1 1.00e+00 1.60e-02w  1
 102 -1.5354688e-01 4.67e+00 5.39e+03  -6.0 2.06e+01  -3.6 9.66e-01 6.95e-01w  1
 103 -1.5859079e-01 1.39e-01 1.79e+03  -6.0 2.39e+01  -4.1 2.09e-01 4.13e-03h  6
 104 -1.5856226e-01 1.39e-01 1.72e+03  -6.0 4.79e+01  -3.7 5.01e-01 2.95e-03h  7
 105 -1.5853117e-01 1.41e-01 1.78e+03  -6.0 2.26e+01  -3.2 1.00e+00 1.18e-02h  5
 106 -1.5850680e-01 1.41e-01 1.75e+03  -6.0 4.98e+01  -3.7 1.35e-01 2.53e-03h  7
 107 -1.5847426e-01 1.41e-01 1.74e+03  -6.0 2.41e+01  -3.3 1.00e+00 8.65e-03h  6
 108 -1.5845367e-01 1.41e-01 1.72e+03  -6.0 5.70e+01  -3.8 9.92e-02 1.83e-03h  7
 109 -1.5841634e-01 1.42e-01 1.71e+03  -6.0 2.51e+01  -3.3 1.00e+00 9.45e-03h  6
iter    objective    inf_pr   inf_du lg(mu)  ||d||  lg(rg) alpha_du alpha_pr  ls
 110 -1.5839905e-01 1.42e-01 1.70e+03  -6.0 8.08e+01  -3.8 5.36e-02 1.14e-03h  7
 111 -1.5836153e-01 1.44e-01 1.69e+03  -6.0 2.60e+01  -3.4 1.00e+00 9.43e-03h  6
 112 -1.5835437e-01 1.43e-01 1.68e+03  -6.0 5.34e+02  -3.9 7.94e-03 1.13e-04h  8
 113 -1.5716358e-01 2.77e+00 1.20e+03  -6.0 2.68e+01  -3.4 1.00e+00 2.98e-01w  1
 114 -1.5693952e-01 2.72e+00 1.16e+03  -6.0 7.40e+01  -3.9 9.87e-04 3.26e-02w  1
 115 -1.5691825e-01 2.70e+00 1.08e+03  -6.0 1.69e+01  -3.5 1.00e+00 7.76e-03w  1
 116 -1.5831716e-01 1.45e-01 1.66e+03  -6.0 2.10e+01  -4.0 1.00e+00 9.30e-03h  5
 117 -1.5828997e-01 1.45e-01 1.63e+03  -6.0 3.09e+01  -3.5 1.00e+00 5.83e-03h  7
 118 -1.5831457e-01 1.47e-01 1.64e+03  -6.0 1.84e+01  -3.1 5.21e-01 1.56e-02h  3
 119 -1.5828652e-01 1.47e-01 1.58e+03  -6.0 3.25e+01  -3.6 1.00e+00 4.88e-03h  7
iter    objective    inf_pr   inf_du lg(mu)  ||d||  lg(rg) alpha_du alpha_pr  ls
 120 -1.5829619e-01 1.48e-01 1.59e+03  -6.0 1.80e+01  -3.2 5.14e-01 1.38e-02h  3
 121 -1.5827166e-01 1.48e-01 1.54e+03  -6.0 3.31e+01  -3.6 1.00e+00 4.39e-03h  7
 122 -1.5823352e-01 1.50e-01 1.56e+03  -6.0 1.75e+01  -3.2 6.65e-01 2.01e-02h  3
 123 -1.5821098e-01 1.50e-01 1.49e+03  -6.0 3.31e+01  -3.7 1.00e+00 4.05e-03h  7
 124 -1.5816086e-01 1.51e-01 1.53e+03  -6.0 1.70e+01  -3.3 7.16e-01 1.30e-02h  5
 125 -1.5813718e-01 1.51e-01 1.47e+03  -6.0 3.09e+01  -3.7 8.25e-01 4.44e-03h  7
 126 -1.5723355e-01 7.09e-01 1.23e+03  -6.0 1.71e+01  -3.3 1.00e+00 2.10e-01w  1
 127 -1.5584750e-01 2.61e+00 8.13e+02  -6.0 2.56e+01  -3.8 1.00e+00 2.66e-01w  1
 128 -1.5549092e-01 2.37e+00 7.46e+02  -6.0 1.14e+01  -3.4 1.00e+00 1.02e-01w  1
 129 -1.5808070e-01 1.51e-01 1.52e+03  -6.0 1.52e+01  -3.8 1.00e+00 1.31e-02h  4
iter    objective    inf_pr   inf_du lg(mu)  ||d||  lg(rg) alpha_du alpha_pr  ls
 130 -1.5803675e-01 1.51e-01 1.48e+03  -6.0 2.08e+01  -3.4 1.00e+00 8.81e-03h  6
 131 -1.5802541e-01 1.51e-01 1.45e+03  -6.0 9.96e+01  -3.9 1.30e-01 1.82e-03h  6
 132 -1.5793802e-01 1.54e-01 1.45e+03  -6.0 1.92e+01  -3.5 1.00e+00 1.90e-02h  5
 133 -1.5787673e-01 1.49e-01 1.42e+03  -6.0 4.68e+01  -4.0 2.38e-01 1.11e-02h  4
 134 -1.5782483e-01 1.50e-01 1.41e+03  -6.0 1.86e+01  -3.5 1.00e+00 1.10e-02h  6
 135 -1.5783104e-01 1.38e-01 1.40e+03  -6.0 6.41e+02  -4.0 2.32e-02 3.38e-03h  3
 136 -1.5777290e-01 1.36e-01 1.38e+03  -6.0 1.87e+01  -3.6 1.00e+00 1.19e-02h  6
 137 -1.5766448e-01 1.34e-01 1.37e+03  -6.0 1.58e+01  -3.1 1.00e+00 2.27e-02h  4
 138 -1.5758634e-01 1.32e-01 1.30e+03  -6.0 2.24e+01  -3.6 1.00e+00 1.41e-02h  5
 139 -1.5672204e-01 4.15e-01 1.10e+03  -6.0 1.57e+01  -3.2 1.00e+00 1.81e-01w  1
iter    objective    inf_pr   inf_du lg(mu)  ||d||  lg(rg) alpha_du alpha_pr  ls
 140 -1.5444629e-01 2.85e+00 1.41e+03  -6.0 1.85e+01  -3.7 6.27e-02 4.35e-01w  1
 141 -1.5078893e-01 2.42e+00 4.47e+02  -6.0 2.57e+01  -4.2 8.06e-01 6.19e-01w  1
 142 -1.5747830e-01 1.30e-01 1.31e+03  -6.0 3.70e+01  -4.6 1.00e+00 2.27e-02h  3
 143 -1.5740529e-01 1.28e-01 1.27e+03  -6.0 1.75e+01  -3.3 1.00e+00 1.42e-02h  5
 144 -1.5730087e-01 1.26e-01 1.23e+03  -6.0 2.23e+01  -3.8 3.75e-01 1.79e-02h  6
 145 -1.5721982e-01 1.24e-01 1.22e+03  -6.0 1.65e+01  -3.4 1.00e+00 1.62e-02h  5
 146 -1.5715029e-01 1.23e-01 1.20e+03  -6.0 2.38e+01  -3.8 3.00e-01 1.15e-02h  7
 147 -1.5704494e-01 1.21e-01 1.17e+03  -6.0 1.69e+01  -3.4 1.00e+00 2.09e-02h  5
 148 -1.5696523e-01 1.19e-01 1.15e+03  -6.0 2.47e+01  -3.9 2.29e-01 1.26e-02h  7
 149 -1.5688757e-01 1.17e-01 1.14e+03  -6.0 1.75e+01  -3.5 1.00e+00 1.53e-02h  6
iter    objective    inf_pr   inf_du lg(mu)  ||d||  lg(rg) alpha_du alpha_pr  ls
 150 -1.5681068e-01 1.16e-01 1.12e+03  -6.0 2.54e+01  -3.9 1.99e-01 1.17e-02h  7
 151 -1.5667947e-01 1.13e-01 1.09e+03  -6.0 1.81e+01  -3.5 1.00e+00 2.56e-02h  6
 152 -1.5186915e-01 7.87e+00 2.09e+03  -6.0 2.63e+01  -4.0 1.84e-01 7.02e-01w  1
 153 -1.5058781e-01 5.99e+00 2.02e+03  -6.0 5.22e+01  -4.5 8.85e-05 2.06e-01w  1
 154 -1.5072478e-01 5.23e+00 1.76e+03  -6.0 1.96e+01  -4.0 1.00e+00 1.28e-01w  1
 155 -1.5652915e-01 1.10e-01 1.06e+03  -6.0 2.18e+01  -4.5 1.84e-01 2.19e-02h  5
 156r-1.5652915e-01 1.10e-01 9.99e+02  -1.4 0.00e+00  -4.1 0.00e+00 2.97e-07R 15
 157r-1.5656374e-01 1.04e-01 1.91e+03  -1.4 4.71e+03    -  2.18e-04 5.67e-05f  1
 158 -1.6159013e-01 2.86e-01 9.13e+02  -6.0 2.88e+05    -  1.68e-04 1.14e-03h  1
 159 -1.6319117e-01 3.23e-01 9.27e+02  -6.0 2.60e+05    -  5.09e-04 3.79e-04f  1
iter    objective    inf_pr   inf_du lg(mu)  ||d||  lg(rg) alpha_du alpha_pr  ls
 160 -1.6666079e-01 5.09e-01 6.34e+03  -6.0 2.51e+05    -  2.91e-03 8.43e-04f  1
 161 -1.7985779e-01 3.52e+00 2.11e+03  -6.0 2.30e+05    -  1.84e-03 3.45e-03f  1
 162 -1.7881970e-01 3.52e+00 6.87e+08  -6.0 1.83e+04  -4.6 1.92e-08 7.27e-04h  2
 163 -1.7948796e-01 3.48e+00 6.79e+08  -6.0 4.75e+01  -5.0 7.75e-03 1.10e-02h  1
 164 -1.7939860e-01 3.15e+00 6.14e+08  -6.0 1.11e+02  -5.5 1.10e-02 9.67e-02h  1
 165 -1.7931109e-01 3.13e+00 6.11e+08  -6.0 1.53e+02  -6.0 1.85e-01 5.92e-03h  1
 166 -1.7838490e-01 3.03e+00 5.92e+08  -6.0 3.61e+02  -6.5 2.58e-01 3.01e-02h  1
 167 -1.6883228e-01 2.12e+00 3.84e+08  -6.0 1.50e+02  -6.0 7.08e-01 3.51e-01H  1
 168 -1.6882018e-01 2.11e+00 3.83e+08  -6.0 4.43e+02  -6.5 6.90e-04 2.76e-03h  4
 169 -1.6863841e-01 2.07e+00 3.76e+08  -6.0 6.33e+01  -6.1 5.55e-01 1.81e-02h  1
iter    objective    inf_pr   inf_du lg(mu)  ||d||  lg(rg) alpha_du alpha_pr  ls
 170 -1.6831691e-01 1.89e+00 3.43e+08  -6.0 1.63e+02  -6.6 1.86e-02 8.78e-02h  1
 171 -1.6829702e-01 1.88e+00 3.42e+08  -6.0 4.92e+01  -6.1 7.11e-01 3.80e-03h  1
 172 -1.6973099e-01 2.28e+00 2.72e+08  -6.0 1.31e+02  -6.6 3.37e-01 2.06e-01h  1
 173 -1.7426881e-01 4.03e+00 2.30e+08  -6.0 3.82e+02  -7.1 2.23e-01 1.52e-01h  2
 174 -1.7729548e-01 4.93e+00 2.29e+08  -6.0 1.90e+04  -7.6 2.34e-02 4.88e-03h  1
 175 -1.7876200e-01 3.76e+00 1.50e+08  -6.0 3.78e+01  -6.3 5.99e-01 3.47e-01h  1
 176 -1.8342485e-01 1.23e+00 4.80e+04  -6.0 2.57e+01  -5.8 2.34e-02 1.00e+00h  1
 177 -1.8375808e-01 1.19e+00 4.63e+04  -6.0 8.41e+01  -6.3 7.19e-01 3.45e-02h  1
 178 -1.8699094e-01 1.05e+01 3.37e+04  -6.0 3.15e+02  -6.8 2.38e-01 2.72e-01h  1
 179 -1.8761001e-01 7.97e+00 2.56e+04  -6.0 3.09e+01  -6.4 1.00e+00 2.40e-01h  1
iter    objective    inf_pr   inf_du lg(mu)  ||d||  lg(rg) alpha_du alpha_pr  ls
 180 -1.9351622e-01 4.76e+00 5.64e+01  -6.0 9.43e+01  -6.8 8.74e-01 1.00e+00h  1
 181 -1.9358399e-01 5.40e-01 3.99e+00  -6.0 4.87e+00  -5.5 1.00e+00 1.00e+00h  1
 182 -1.9421671e-01 1.53e-01 2.99e+00  -6.0 1.08e+01  -6.0 1.00e+00 1.00e+00h  1
 183 -1.9537013e-01 2.41e-01 6.17e+00  -6.0 3.44e+01  -6.5 1.00e+00 8.10e-01h  1
 184 -1.9878759e-01 3.71e-01 3.04e+01  -6.0 1.01e+02  -6.9 1.00e+00 1.00e+00h  1
Error in an AMPL evaluation. Run with "halt_on_ampl_error yes" to see details.
Warning: Cutting back alpha due to evaluation error
 185 -2.0080177e-01 4.95e-01 4.32e+01  -6.0 3.19e+02  -7.4 2.73e-01 2.51e-01h  2
 186 -2.0387248e-01 8.79e-01 3.76e+01  -6.0 1.21e+02  -7.0 1.00e+00 1.00e+00h  1
 187 -2.0596413e-01 1.09e+00 5.54e+01  -6.0 3.85e+02  -7.5 2.92e-01 2.38e-01h  1
 188 -2.0667163e-01 2.47e+00 6.84e+01  -6.0 2.28e+03  -7.9 1.04e-01 2.87e-02h  1
 189 -2.0884629e-01 3.74e+00 3.90e+01  -6.0 2.28e+02  -7.5 1.32e-01 3.54e-01h  1
iter    objective    inf_pr   inf_du lg(mu)  ||d||  lg(rg) alpha_du alpha_pr  ls
 190 -2.1012741e-01 2.25e+00 3.03e+01  -6.0 1.48e+02  -7.1 9.90e-01 4.26e-01h  1
 191 -2.1279810e-01 9.98e-01 1.10e+01  -6.0 1.98e+02  -7.6 1.00e+00 6.86e-01h  1
 192 -2.1962746e-01 3.59e+00 8.98e+01  -6.0 4.98e+02  -8.0 1.00e+00 6.96e-01h  1
 193 -2.1961913e-01 3.51e+00 8.75e+01  -6.0 8.02e+00  -3.1 3.94e-02 2.21e-02h  1
 194 -2.1959994e-01 3.42e+00 8.56e+01  -6.0 7.68e+00  -2.7 4.65e-03 2.51e-02h  1
 195 -2.1959249e-01 3.38e+00 8.45e+01  -6.0 6.63e+00  -2.2 1.50e-02 1.24e-02h  1
 196 -2.1957166e-01 3.34e+00 8.37e+01  -6.0 1.57e+01  -2.7 9.38e-03 9.30e-03h  1
 197 -2.1953708e-01 3.19e+00 7.79e+01  -6.0 6.60e+00  -2.3 1.87e-01 4.48e-02h  1
 198 -2.1951126e-01 3.05e+00 7.42e+01  -6.0 5.48e+00  -1.9 5.24e-02 4.62e-02h  1
 199 -2.1937286e-01 2.75e+00 6.77e+01  -6.0 9.41e+00  -2.3 6.52e-02 9.38e-02h  1
iter    objective    inf_pr   inf_du lg(mu)  ||d||  lg(rg) alpha_du alpha_pr  ls
 200 -2.1934016e-01 2.64e+00 6.41e+01  -6.0 4.06e+00  -1.9 1.15e-01 4.15e-02h  1
 201 -2.1902068e-01 2.44e+00 8.06e+01  -6.0 3.87e+01  -2.4 3.98e-02 7.40e-02h  1
 202 -2.1893354e-01 1.87e+00 3.25e+02  -6.0 2.62e+00  -2.0 1.00e+00 2.35e-01h  1
 203 -2.1888188e-01 1.87e-01 1.18e+03  -6.0 3.58e+00  -2.5 3.85e-01 1.00e+00h  1
 204 -2.1892323e-01 4.70e-03 1.96e+02  -6.0 4.97e-01  -2.9 9.10e-01 1.00e+00h  1
 205 -2.1899437e-01 6.78e-04 3.28e-01  -6.0 8.83e-01  -3.4 1.00e+00 1.00e+00h  1
 206 -2.1906580e-01 6.95e-04 3.94e-01  -6.0 3.25e-01  -3.9 7.55e-01 1.00e+00h  1
 207 -2.1921743e-01 3.09e-03 6.17e-01  -6.0 8.93e-01  -4.4 8.00e-01 6.49e-01h  1
 208 -2.1930535e-01 3.71e-03 4.28e+00  -6.0 2.10e+00  -4.8 1.00e+00 1.66e-01f  1
 209 -2.1942877e-01 6.81e-03 2.08e+00  -6.0 5.04e+00  -5.3 1.00e+00 3.27e-01f  1
iter    objective    inf_pr   inf_du lg(mu)  ||d||  lg(rg) alpha_du alpha_pr  ls
 210 -2.1947732e-01 3.67e-03 4.01e+00  -6.0 4.60e+00  -5.8 1.00e+00 4.86e-01f  1
 211 -2.1956007e-01 3.07e-03 1.28e+01  -6.0 8.71e+00  -6.3 1.00e+00 3.11e-01f  1
 212 -2.2000563e-01 1.01e-02 6.87e-01  -6.0 2.47e+01  -6.7 1.00e+00 1.00e+00f  1
 213 -2.2130620e-01 8.23e-02 1.38e+00  -6.0 6.95e+01  -7.2 1.00e+00 1.00e+00h  1
 214 -2.2351160e-01 6.18e-01 8.27e+00  -6.0 1.86e+02  -7.7 6.09e-01 6.31e-01h  1
 215 -2.2465790e-01 4.57e-01 6.82e+00  -6.0 6.98e+01  -7.3 3.24e-01 1.00e+00h  1
 216 -2.2598517e-01 4.79e-01 1.15e+01  -6.0 3.44e+02  -7.8 4.04e-01 3.61e-01h  1
 217 -2.2691086e-01 1.12e+00 2.32e+02  -6.0 4.58e+03  -8.2 5.05e-02 3.53e-02h  1
 218 -2.2759994e-01 1.03e+00 1.56e+02  -6.0 9.64e+02  -8.7 1.00e+00 7.35e-02h  1
 219 -2.2895017e-01 7.36e-01 2.69e+02  -6.0 3.63e+02  -8.3 5.84e-01 2.94e-01h  1
iter    objective    inf_pr   inf_du lg(mu)  ||d||  lg(rg) alpha_du alpha_pr  ls
 220 -2.3033212e-01 6.67e-01 6.36e+02  -6.0 6.71e+02  -8.8 1.00e+00 2.13e-01h  1
 221 -2.3194905e-01 1.98e+00 3.40e+02  -6.0 8.79e+02  -8.3 8.41e-02 3.27e-01h  1
 222 -2.3383296e-01 7.85e+00 1.35e+02  -6.0 9.49e+02  -8.8 5.05e-01 6.61e-01h  1
 223 -2.3445628e-01 6.71e+00 2.40e+02  -6.0 6.70e+02  -8.4 5.16e-02 1.79e-01h  1
 224 -2.3656813e-01 4.42e+00 2.41e+02  -6.0 6.86e+02  -8.9 5.60e-01 4.85e-01h  1
 225 -2.3727334e-01 4.26e+00 7.65e+02  -6.0 7.18e+03  -9.3 1.15e-02 4.08e-02h  1
 226 -2.3731727e-01 4.23e+00 1.26e+02  -6.0 9.42e+02  -8.9 3.47e-02 7.48e-03h  1
 227 -2.3768394e-01 4.15e+00 1.62e+02  -6.0 8.12e+03  -9.4 9.35e-03 1.86e-02f  1
 228 -2.3771423e-01 4.12e+00 1.11e+02  -6.0 1.07e+03  -9.0 2.51e-02 7.17e-03h  1
 229 -2.3958128e-01 7.47e+00 1.68e+02  -6.0 1.35e+04  -9.4 3.50e-03 6.13e-02f  1
iter    objective    inf_pr   inf_du lg(mu)  ||d||  lg(rg) alpha_du alpha_pr  ls
 230 -2.3963882e-01 7.44e+00 1.70e+02  -6.0 8.68e+03  -9.0 1.99e-06 1.28e-03H  1
 231 -2.3956631e-01 7.43e+00 1.70e+02  -6.0 9.27e+04  -8.6 9.89e-04 1.09e-03h  4
 232 -2.3958578e-01 7.42e+00 9.56e+00  -6.0 2.72e+03  -9.1 2.47e-01 2.45e-03h  1
 233 -2.4095511e-01 4.03e+00 3.06e+02  -6.0 7.10e+02  -8.6 3.41e-02 5.17e-01h  1
 234 -2.4279919e-01 5.58e+00 2.62e+02  -6.0 5.41e+03  -9.1 1.71e-01 1.29e-01h  1
 235 -2.4279830e-01 5.55e+00 2.60e+02  -6.0 2.62e+02  -6.9 6.24e-03 4.80e-03h  1
 236 -2.4285636e-01 5.52e+00 2.58e+02  -6.0 1.81e+03  -7.4 8.34e-03 7.09e-03h  1
 237 -2.4247440e-01 4.75e+00 2.24e+02  -6.0 4.29e+02  -6.9 7.11e-03 1.51e-01h  1
 238 -2.4258029e-01 2.99e+00 1.36e+02  -6.0 1.34e+02  -7.4 5.24e-01 3.60e-01h  1
 239 -2.4257942e-01 2.97e+00 1.34e+02  -6.0 2.14e+03  -7.9 4.85e-02 7.63e-03h  1
iter    objective    inf_pr   inf_du lg(mu)  ||d||  lg(rg) alpha_du alpha_pr  ls
 240 -2.4297079e-01 6.08e-01 4.19e+01  -6.0 1.37e+02  -7.5 1.49e-01 1.00e+00h  1
 241 -2.4359614e-01 1.97e+00 7.56e+01  -6.0 2.53e+01  -6.1 5.26e-01 2.33e-01h  1
 242 -2.4369413e-01 1.65e+00 4.95e+01  -6.0 3.03e+01  -6.6 3.31e-01 1.63e-01h  1
 243 -2.4379076e-01 1.03e-01 4.16e+00  -6.0 1.53e+01  -7.1 1.00e+00 1.00e+00h  1
 244 -2.4404158e-01 1.04e-01 1.26e+01  -6.0 4.41e+01  -7.6 7.78e-01 5.63e-01h  1
 245 -2.4474086e-01 1.93e-01 2.49e-01  -6.0 1.04e+02  -8.0 1.00e+00 1.00e+00f  1
 246 -2.4484069e-01 1.76e-01 1.06e+01  -6.0 6.72e+01  -7.6 1.04e-01 9.17e-02h  1
 247 -2.4545902e-01 1.41e-01 1.50e+00  -6.0 8.87e+01  -8.1 1.00e+00 1.00e+00h  1
 248 -2.4621833e-01 2.71e-01 1.19e+02  -6.0 2.01e+02  -8.6 3.61e-01 6.02e-01h  1
 249 -2.4865454e-01 5.28e+00 2.90e+02  -6.0 5.60e+02  -9.0 6.19e-01 8.99e-01h  1
iter    objective    inf_pr   inf_du lg(mu)  ||d||  lg(rg) alpha_du alpha_pr  ls
 250 -2.5115049e-01 1.64e+01 1.23e+02  -6.0 1.83e+03  -9.5 2.90e-02 4.33e-01h  1
 251 -2.5382644e-01 1.32e+01 1.02e+02  -6.0 7.51e+02  -9.1 8.59e-02 1.00e+00h  1
 252 -2.5480318e-01 1.45e+01 9.55e+01  -6.0 4.08e+03  -9.6 4.91e-02 7.64e-02h  1
 253 -2.5480326e-01 1.40e+01 8.53e+01  -6.0 9.16e+02  -9.1 1.61e-01 3.38e-02h  1
 254 -2.5560523e-01 1.52e+01 4.04e+01  -6.0 2.46e+02  -8.7 1.17e-01 1.00e+00h  1
 255 -2.5599609e-01 6.65e+00 3.35e+01  -6.0 9.19e+01  -8.3 1.93e-01 7.31e-01h  1
 256 -2.5669631e-01 1.55e+01 3.72e+01  -6.0 3.26e+02  -8.8 4.21e-01 5.62e-01h  1
 257 -2.5718784e-01 1.29e+01 3.02e+01  -6.0 6.41e+02  -9.3 2.16e-01 2.27e-01h  1
 258 -2.5768418e-01 1.15e+01 2.61e+01  -6.0 1.56e+03  -9.7 2.07e-01 1.68e-01h  1
 259 -2.5776101e-01 1.66e+01 2.58e+01  -6.0 4.14e+04    -  4.03e-02 2.51e-02h  1
iter    objective    inf_pr   inf_du lg(mu)  ||d||  lg(rg) alpha_du alpha_pr  ls
 260 -2.5779401e-01 1.63e+01 4.39e+01  -6.0 2.16e+04    -  1.10e-01 1.62e-02h  1
 261 -2.5834058e-01 1.10e+01 2.88e+01  -6.0 1.26e+03 -10.2 3.52e-01 3.34e-01h  1
 262 -2.5860482e-01 7.62e+00 2.13e+02  -6.0 5.35e+02  -9.8 6.50e-03 3.09e-01h  1
 263 -2.5860684e-01 6.59e+00 3.74e+02  -6.0 8.87e+01  -6.6 2.77e-01 1.35e-01h  1
 264 -2.5860818e-01 5.69e+00 1.14e+02  -6.0 9.15e+01  -7.1 3.01e-01 1.37e-01h  1
 265 -2.5853364e-01 8.30e-01 5.64e+02  -6.0 3.24e+01  -6.7 3.28e-01 8.54e-01h  1
 266 -2.5852641e-01 5.41e-01 3.68e+02  -6.0 9.78e+00  -7.2 1.00e+00 3.48e-01h  1
 267 -2.5851992e-01 2.48e-01 1.90e+00  -6.0 9.68e+00  -7.7 1.00e+00 1.00e+00h  1
 268 -2.5860045e-01 3.36e-02 3.22e-01  -6.0 3.48e+01  -8.1 1.00e+00 1.00e+00h  1
 269 -2.5880329e-01 4.58e-01 2.66e+00  -6.0 1.28e+02  -8.6 1.00e+00 1.00e+00h  1
iter    objective    inf_pr   inf_du lg(mu)  ||d||  lg(rg) alpha_du alpha_pr  ls
 270 -2.5899697e-01 1.25e+00 6.75e+00  -6.0 1.40e+03  -9.1 1.42e-01 1.24e-01h  1
 271 -2.5913719e-01 2.05e-01 4.58e-01  -6.0 2.70e+02  -9.6 1.00e+00 1.00e+00h  1
 272 -2.5939252e-01 1.30e+00 8.59e+00  -6.0 2.40e+03  -9.1 8.71e-02 8.89e-02h  1
 273 -2.5971680e-01 1.13e+00 9.47e+00  -6.0 2.50e+02  -9.6 1.00e+00 1.00e+00h  1
 274 -2.5985893e-01 8.26e-01 5.18e+01  -6.0 6.13e+02 -10.1 4.39e-01 4.53e-01h  1
 275 -2.6008091e-01 1.06e+01 1.04e+03  -6.0 1.28e+03 -10.6 1.00e+00 7.50e-01h  1
 276 -2.6008785e-01 3.83e+01 9.97e+02  -6.0 5.91e+04    -  2.05e-02 2.49e-02h  1
 277 -2.6026146e-01 4.88e+01 1.17e+03  -6.0 2.78e+03 -11.0 3.20e-01 6.86e-01h  1
 278 -2.6026926e-01 4.72e+01 7.99e+03  -6.0 3.04e+03    -  1.41e-01 3.14e-02h  1
 279 -2.6029461e-01 3.21e+01 8.22e+03  -6.0 5.99e+02  -9.7 4.95e-02 3.21e-01h  1
iter    objective    inf_pr   inf_du lg(mu)  ||d||  lg(rg) alpha_du alpha_pr  ls
 280 -2.6025636e-01 1.57e+01 3.43e+03  -6.0 6.44e+02 -10.2 2.41e-01 5.23e-01h  1
 281 -2.6024364e-01 1.38e+01 2.96e+03  -6.0 3.39e+03    -  1.68e-01 1.36e-01h  1
 282 -2.6017244e-01 5.41e-01 1.58e+02  -6.0 1.11e+03    -  6.05e-01 1.00e+00h  1
 283 -2.6016904e-01 4.92e-01 1.43e+01  -6.0 4.77e+02    -  1.00e+00 2.07e-01h  1
 284 -2.6016503e-01 4.21e-01 1.47e+01  -6.0 4.94e+02    -  1.00e+00 2.50e-01h  3
 285 -2.6016403e-01 4.27e-01 2.62e+01  -6.0 7.25e+02    -  1.00e+00 6.76e-02h  4
 286 -2.6016248e-01 5.25e-01 3.22e+01  -6.0 8.08e+02    -  1.00e+00 8.45e-02h  3
 287 -2.6016085e-01 4.53e-01 2.91e+01  -6.0 4.69e+02    -  3.31e-02 1.29e-01h  2
 288 -2.6015698e-01 3.40e-02 3.44e-03  -6.0 1.70e+01  -8.9 1.00e+00 1.00e+00h  1
 289 -2.6015732e-01 3.31e-02 1.32e-03  -6.0 5.30e+01  -9.3 1.00e+00 1.00e+00h  1
iter    objective    inf_pr   inf_du lg(mu)  ||d||  lg(rg) alpha_du alpha_pr  ls
 290 -2.6015792e-01 3.20e-01 1.02e+00  -6.0 1.65e+02  -9.8 7.13e-01 1.00e+00h  1
 291 -2.6015800e-01 2.93e-01 2.28e-01  -6.0 4.60e+02 -10.3 1.00e+00 1.00e+00H  1
 292 -2.6015710e-01 4.71e-01 1.62e+01  -6.0 6.65e+02 -10.8 1.00e+00 2.23e-01h  2
 293 -2.6015558e-01 7.18e-01 7.76e+01  -6.0 2.23e+03    -  1.00e+00 6.24e-02h  2
 294 -2.6013501e-01 1.13e+01 3.00e+00  -6.0 8.89e+02    -  1.00e+00 1.00e+00h  1
 295 -2.6013500e-01 1.16e+01 9.98e+01  -6.0 1.49e+04    -  1.49e-01 1.19e-02h  2
 296 -2.6012282e-01 1.58e+01 1.44e+02  -6.0 2.67e+03    -  1.00e+00 2.77e-01h  2
 297 -2.6011405e-01 1.90e+01 1.91e+02  -6.0 3.47e+03    -  5.69e-01 2.01e-01h  2
 298 -2.6010525e-01 2.20e+01 6.12e+02  -6.0 4.63e+03    -  1.00e+00 1.44e-01h  2
 299 -2.6008683e-01 2.73e+01 6.30e+02  -6.0 4.70e+03    -  4.71e-01 1.84e-01h  2
iter    objective    inf_pr   inf_du lg(mu)  ||d||  lg(rg) alpha_du alpha_pr  ls
 300 -2.6007388e-01 2.98e+01 1.67e+03  -6.0 5.21e+03    -  9.28e-01 1.38e-01h  2
 301 -2.6009217e-01 2.11e+01 6.66e+02  -6.0 1.20e+03    -  4.89e-01 3.66e-01h  1
 302 -2.6014916e-01 6.98e+00 7.96e+02  -6.0 5.27e+02    -  3.63e-01 7.67e-01h  1
 303 -2.6012506e-01 6.12e-01 1.93e+02  -6.0 1.54e+02    -  4.06e-01 1.00e+00h  1
 304 -2.6013087e-01 4.64e-03 3.20e-02  -6.0 3.12e+00    -  1.00e+00 1.00e+00h  1
 305 -2.6013484e-01 1.10e-01 2.36e-02  -6.0 4.13e+01  -9.4 1.00e+00 1.00e+00h  1
 306 -2.6013458e-01 4.46e-01 2.65e-02  -6.0 1.89e+02  -9.9 1.00e+00 1.00e+00h  1
 307 -2.6013433e-01 4.55e-01 1.93e+01  -6.0 1.16e+03    -  1.00e+00 6.02e-02h  2
 308 -2.6013264e-01 1.18e+00 8.15e+00  -6.0 6.51e+02    -  1.00e+00 4.31e-01h  2
 309 -2.6013211e-01 1.25e+00 1.57e+01  -6.0 1.00e+03    -  1.00e+00 1.41e-01h  2
iter    objective    inf_pr   inf_du lg(mu)  ||d||  lg(rg) alpha_du alpha_pr  ls
 310 -2.6013193e-01 4.61e-01 1.18e+01  -6.0 1.75e+02    -  1.71e-01 8.17e-01h  1
 311 -2.6013255e-01 1.31e-02 1.71e-03  -6.0 3.33e+01    -  1.00e+00 1.00e+00h  1
 312 -2.6013260e-01 2.27e-03 3.35e-05  -6.0 1.40e+01    -  1.00e+00 1.00e+00h  1
 313 -2.6013260e-01 7.68e-07 3.90e-08  -6.0 2.56e-01    -  1.00e+00 1.00e+00h  1
 314 -2.6064121e-01 1.57e+00 6.98e+01  -7.5 2.22e+03    -  4.68e-01 2.23e-01h  1
 315 -2.6075185e-01 1.60e+00 6.45e+01  -7.5 2.42e+03    -  6.40e-02 6.77e-02h  1
 316 -2.6076208e-01 1.59e+00 1.22e+02  -7.5 1.63e+03  -9.5 4.08e-01 7.60e-03h  1
 317 -2.6129855e-01 6.87e+00 5.75e+01  -7.5 2.74e+03    -  4.38e-03 3.84e-01h  1
 318 -2.6131516e-01 6.74e+00 8.47e+01  -7.5 8.73e+03    -  1.69e-01 2.00e-02h  1
 319 -2.6134324e-01 6.45e+00 7.65e+01  -7.5 2.02e+03    -  1.70e-02 4.49e-02h  1
iter    objective    inf_pr   inf_du lg(mu)  ||d||  lg(rg) alpha_du alpha_pr  ls
 320 -2.6147052e-01 5.28e+00 6.06e+02  -7.5 1.91e+03    -  8.63e-03 2.24e-01h  1
 321 -2.6150188e-01 4.90e+00 5.61e+02  -7.5 1.87e+03    -  9.21e-02 7.52e-02h  1
 322 -2.6167258e-01 3.20e+00 3.14e+02  -7.5 1.83e+03    -  1.84e-01 4.41e-01h  1
 323 -2.6171789e-01 2.89e+00 2.83e+02  -7.5 1.85e+03    -  4.50e-01 9.79e-02h  1
 324 -2.6185104e-01 1.59e+00 1.15e+02  -7.5 1.21e+03    -  5.55e-01 5.93e-01h  1
 325 -2.6185768e-01 1.37e+00 9.91e+01  -7.5 7.51e+01 -10.0 1.00e+00 1.42e-01h  1
 326 -2.6191096e-01 5.43e+00 1.27e+01  -7.5 7.84e+02    -  1.78e-01 8.74e-01h  1
 327 -2.6192289e-01 4.46e-02 7.54e-01  -7.5 4.94e+01 -10.4 6.61e-01 1.00e+00h  1
 328 -2.6192308e-01 4.35e-02 3.18e-01  -7.5 3.24e+02    -  5.82e-01 2.90e-02h  2
 329 -2.6192359e-01 1.41e+00 2.62e-01  -7.5 2.37e+02    -  1.67e-01 5.64e-01h  1
iter    objective    inf_pr   inf_du lg(mu)  ||d||  lg(rg) alpha_du alpha_pr  ls
 330 -2.6192346e-01 4.42e+00 2.08e-01  -7.5 5.16e+02    -  1.99e-01 1.00e+00f  1
 331 -2.6192339e-01 1.58e+00 1.14e-01  -7.5 2.73e+02    -  4.54e-01 1.00e+00h  1
 332 -2.6192340e-01 2.77e-01 6.27e-05  -7.5 4.28e+01    -  1.00e+00 1.00e+00h  1
 333 -2.6192347e-01 3.05e+00 8.57e-02  -7.5 2.89e+02    -  3.14e-01 1.00e+00h  1
 334 -2.6192348e-01 3.44e-02 6.55e-05  -7.5 5.22e+01 -10.9 1.00e+00 1.00e+00h  1
 335 -2.6192353e-01 3.04e-01 4.89e-04  -7.5 1.58e+02 -11.4 1.00e+00 1.00e+00h  1
 336 -2.6192368e-01 3.43e+00 5.74e-03  -7.5 5.30e+02 -11.9 1.00e+00 1.00e+00h  1
 337 -2.6192570e-01 7.00e+00 1.99e+00  -7.5 2.86e+03 -12.4 3.16e-01 8.25e-01H  1
 338 -2.6192692e-01 4.95e+01 3.30e+00  -7.5 4.31e+03    -  2.77e-02 1.00e+00H  1
 339 -2.6192674e-01 1.42e-02 1.98e-03  -7.5 5.05e+01    -  1.00e+00 1.00e+00h  1
iter    objective    inf_pr   inf_du lg(mu)  ||d||  lg(rg) alpha_du alpha_pr  ls
 340 -2.6193003e-01 4.21e+01 3.34e+00  -7.5 1.93e+03 -11.9 1.14e-01 1.00e+00H  1
 341 -2.6192923e-01 8.85e+00 2.03e-01  -7.5 7.63e+02    -  1.00e+00 1.00e+00h  1
 342 -2.6193000e-01 8.84e+00 4.54e-02  -7.5 7.28e+02    -  1.00e+00 1.00e+00h  1
 343 -2.6192994e-01 2.59e-02 6.11e-04  -7.5 4.79e+01    -  1.00e+00 1.00e+00h  1
 344 -2.6192991e-01 1.35e-02 6.71e-05  -7.5 2.83e+01    -  1.00e+00 1.00e+00h  1
 345 -2.6192991e-01 3.00e-08 8.88e-10  -7.5 5.57e-02    -  1.00e+00 1.00e+00h  1
 346 -2.6193232e-01 2.66e+00 4.09e+00  -9.0 1.63e+03    -  5.20e-01 2.44e-01h  1
 347 -2.6193560e-01 5.63e+01 4.48e-01  -9.0 3.09e+03    -  4.08e-01 5.84e-01h  1
 348 -2.6193637e-01 3.87e+01 1.02e+01  -9.0 1.48e+03    -  6.50e-03 5.45e-01h  1
 349 -2.6193740e-01 3.72e+01 3.54e+00  -9.0 1.43e+03    -  1.01e-01 8.86e-01h  1
iter    objective    inf_pr   inf_du lg(mu)  ||d||  lg(rg) alpha_du alpha_pr  ls
 350 -2.6193822e-01 2.85e+01 2.06e+00  -9.0 1.13e+03    -  4.52e-01 1.00e+00h  1
 351 -2.6193874e-01 3.84e+01 1.79e+00  -9.0 9.43e+03    -  1.28e-01 7.79e-02h  1
 352 -2.6193921e-01 2.78e+01 3.37e+00  -9.0 1.66e+03    -  2.29e-01 3.42e-01h  1
 353 -2.6193921e-01 2.78e+01 3.69e+00  -9.0 1.21e+05    -  6.12e-03 1.89e-04h  8
 354 -2.6193969e-01 5.70e-01 4.15e+01  -9.0 2.20e+02 -12.4 1.37e-01 1.00e+00h  1
 355 -2.6193977e-01 4.04e+00 2.52e+01  -9.0 1.16e+03 -12.9 4.25e-01 3.93e-01h  1
 356 -2.6193974e-01 2.77e-01 3.71e-01  -9.0 6.62e+01 -11.6 4.57e-01 1.00e+00h  1
 357 -2.6194022e-01 7.62e+01 3.41e-01  -9.0 2.53e+03    -  8.35e-02 1.00e+00h  1
 358 -2.6194043e-01 1.02e+00 2.96e-01  -9.0 2.09e+02 -12.0 1.26e-01 1.00e+00h  1
 359 -2.6194075e-01 7.51e+00 1.80e-02  -9.0 7.77e+02 -12.5 9.39e-01 1.00e+00h  1
iter    objective    inf_pr   inf_du lg(mu)  ||d||  lg(rg) alpha_du alpha_pr  ls
 360 -2.6194169e-01 9.02e+01 1.27e-02  -9.0 8.87e+03 -13.0 3.16e-01 2.91e-01h  1
 361 -2.6194171e-01 9.01e+01 1.27e-02  -9.0 6.20e+04 -13.5 1.56e-02 1.02e-03h  6
 362 -2.6194199e-01 8.09e+01 1.04e-01  -9.0 4.01e+03 -13.0 3.76e-01 1.11e-01h  1
 363 -2.6194384e-01 7.02e+01 2.43e-02  -9.0 2.15e+03 -12.6 9.33e-02 1.00e+00h  1
 364 -2.6194431e-01 6.13e+01 1.00e-01  -9.0 4.21e+03 -13.1 3.15e-02 1.48e-01h  1
 365 -2.6194652e-01 5.88e+01 6.88e-01  -9.0 1.88e+03 -12.7 2.24e-01 1.00e+00h  1
 366 -2.6194663e-01 5.83e+01 4.67e-01  -9.0 2.76e+04    -  4.64e-02 7.69e-03h  2
 367 -2.6194676e-01 5.73e+01 1.18e-01  -9.0 1.38e+04    -  1.43e-01 1.83e-02h  1
 368 -2.6194732e-01 4.59e+01 8.19e-01  -9.0 1.78e+03    -  4.73e-01 2.73e-01h  1
 369 -2.6194812e-01 3.60e+01 1.70e+00  -9.0 1.75e+03    -  7.22e-01 3.98e-01h  1
iter    objective    inf_pr   inf_du lg(mu)  ||d||  lg(rg) alpha_du alpha_pr  ls
 370 -2.6194968e-01 4.32e+01 3.04e+00  -9.0 1.67e+03    -  8.29e-02 8.47e-01h  1
 371 -2.6194976e-01 4.07e+01 2.76e+00  -9.0 1.65e+03    -  4.07e-02 6.29e-02h  1
 372 -2.6195029e-01 3.27e+01 7.77e+01  -9.0 1.60e+03    -  2.64e-02 3.81e-01h  1
 373 -2.6195048e-01 2.90e+01 6.56e+01  -9.0 1.69e+03    -  4.31e-02 1.54e-01h  1
 374 -2.6195084e-01 2.55e+01 4.57e+01  -9.0 1.67e+03    -  5.84e-02 3.01e-01h  1
 375 -2.6195107e-01 2.23e+01 3.68e+01  -9.0 1.82e+03    -  5.38e-02 1.95e-01h  1
 376 -2.6195138e-01 2.10e+01 2.61e+01  -9.0 1.70e+03    -  8.14e-02 2.91e-01h  1
 377 -2.6195156e-01 1.84e+01 2.15e+01  -9.0 1.89e+03    -  8.85e-02 1.76e-01h  1
 378 -2.6195189e-01 1.94e+01 1.36e+01  -9.0 1.58e+03    -  1.43e-01 3.64e-01h  1
 379 -2.6195200e-01 1.75e+01 1.19e+01  -9.0 1.79e+03    -  2.36e-02 1.25e-01h  1
iter    objective    inf_pr   inf_du lg(mu)  ||d||  lg(rg) alpha_du alpha_pr  ls
 380 -2.6195200e-01 1.73e+01 1.18e+01  -9.0 1.20e+03    -  2.29e-02 1.17e-02h  1
 381 -2.6195203e-01 1.63e+01 1.11e+01  -9.0 1.47e+03    -  3.40e-02 5.65e-02h  1
 382 -2.6195196e-01 4.10e+00 6.75e+02  -9.0 4.28e+02    -  1.74e-03 1.00e+00h  1
 383 -2.6195189e-01 6.33e-04 6.22e-02  -9.0 4.92e+00    -  9.81e-01 1.00e+00h  1
 384 -2.6195205e-01 4.01e+00 6.82e-02  -9.0 2.22e+03    -  8.28e-01 1.87e-01h  1
 385 -2.6195203e-01 6.14e-02 2.05e-05  -9.0 5.45e+01    -  1.00e+00 1.00e+00h  1
 386 -2.6195205e-01 4.80e-02 8.62e-06  -9.0 4.47e+01    -  1.00e+00 1.00e+00h  1
 387 -2.6195205e-01 4.22e-05 9.19e-09  -9.0 1.28e+00    -  1.00e+00 1.00e+00h  1
 388 -2.6195205e-01 1.84e-10 1.62e-14  -9.0 3.76e-04    -  1.00e+00 1.00e+00h  1

Number of Iterations....: 388

                                   (scaled)                 (unscaled)
Objective...............:  -2.6195204895241492e-01   -2.6195204895241492e-01
Dual infeasibility......:   1.6223133947335100e-14    1.6223133947335100e-14
Constraint violation....:   1.8392933172611120e-10    1.8392933172611120e-10
Complementarity.........:   9.0909091952342431e-10    9.0909091952342431e-10
Overall NLP error.......:   9.0909091952342431e-10    9.0909091952342431e-10


Number of objective function evaluations             = 1341
Number of objective gradient evaluations             = 389
Number of equality constraint evaluations            = 1342
Number of inequality constraint evaluations          = 1342
Number of equality constraint Jacobian evaluations   = 390
Number of inequality constraint Jacobian evaluations = 390
Number of Lagrangian Hessian evaluations             = 388
Total CPU secs in IPOPT (w/o function evaluations)   =    671.314
Total CPU secs in NLP function evaluations           =     18.381

EXIT: Optimal Solution Found.
